Solver command line: ['/usr/local/bin/gurobi.sh']

Set parameter WLSAccessID
Set parameter WLSSecret
Set parameter LicenseID to value 2606900
Academic license 2606900 - for non-commercial use only - registered to so___@htwk-leipzig.de
Read LP format model from file /var/folders/jf/5sh4zzv94dxbcz8g7tg2jq5h0000gn/T/tmp8akrj1su.pyomo.lp
Reading time = 2.13 seconds
objective: 970608 rows, 878399 columns, 2191566 nonzeros
Set parameter MIPGap to value 0.02
Gurobi Optimizer version 12.0.1 build v12.0.1rc0 (mac64[rosetta2] - Darwin 24.4.0 24E263)

CPU model: Apple M3
Thread count: 8 physical cores, 8 logical processors, using up to 8 threads

Non-default parameters:
MIPGap  0.02

Academic license 2606900 - for non-commercial use only - registered to so___@htwk-leipzig.de
Optimize a model with 970608 rows, 878399 columns and 2191566 nonzeros
Model fingerprint: 0xd0aa32b0
Model has 8783 quadratic constraints
Variable types: 755424 continuous, 122975 integer (105408 binary)
Coefficient statistics:
  Matrix range     [8e-03, 2e+02]
  QMatrix range    [1e+00, 1e+00]
  Objective range  [1e-02, 1e+03]
  Bounds range     [1e+00, 3e+00]
  RHS range        [8e-05, 1e+04]
Presolve removed 777508 rows and 658942 columns
Presolve time: 0.45s
Presolved: 193100 rows, 219457 columns, 611579 nonzeros
Variable types: 145054 continuous, 74403 integer (65619 binary)
Performing another presolve...
Presolve removed 70363 rows and 70362 columns
Presolve time: 4.88s
Deterministic concurrent LP optimizer: primal and dual simplex
Showing primal log only...


Root simplex log...

Iteration    Objective       Primal Inf.    Dual Inf.      Time
       0    6.3069411e+07   8.316388e+06   6.712328e+13      6s
Concurrent spin time: 0.00s

Solved with dual simplex

Root simplex log...

Iteration    Objective       Primal Inf.    Dual Inf.      Time
   67804    3.9672235e+07   0.000000e+00   0.000000e+00      9s

Root relaxation: objective 3.967223e+07, 67804 iterations, 2.69 seconds (4.15 work units)
Total elapsed time = 8.83s (DegenMoves)

    Nodes    |    Current Node    |     Objective Bounds      |     Work
 Expl Unexpl |  Obj  Depth IntInf | Incumbent    BestBd   Gap | It/Node Time

     0     0 3.9672e+07    0  381          - 3.9672e+07      -     -   10s
H    0     0                    3.980746e+07 3.9672e+07  0.34%     -   10s

Explored 1 nodes (73897 simplex iterations) in 11.07 seconds (19.36 work units)
Thread count was 8 (of 8 available processors)

Solution count 1: 3.98075e+07 

Optimal solution found (tolerance 2.00e-02)
Best objective 3.980746356747e+07, best bound 3.967223463196e+07, gap 0.3397%

